90 4005
1 2 173
1 3 182
1 4 244
1 5 126
1 6 177
1 7 146
1 8 36
1 9 140
1 10 224
1 11 92
1 12 79
1 13 190
1 14 196
1 15 204
1 16 260
1 17 197
1 18 167
1 19 161
1 20 235
1 21 180
1 22 138
1 23 226
1 24 66
1 25 185
1 26 124
1 27 183
1 28 187
1 29 37
1 30 261
1 31 3
1 32 194
1 33 135
1 34 58
1 35 226
1 36 261
1 37 158
1 38 49
1 39 228
1 40 167
1 41 98
1 42 268
1 43 143
1 44 170
1 45 143
1 46 113
1 47 99
1 48 203
1 49 243
1 50 5
1 51 175
1 52 169
1 53 40
1 54 136
1 55 139
1 56 47
1 57 43
1 58 186
1 59 112
1 60 159
1 61 41
1 62 209
1 63 34
1 64 50
1 65 57
1 66 64
1 67 156
1 68 169
1 69 190
1 70 98
1 71 191
1 72 80
1 73 95
1 74 223
1 75 62
1 76 77
1 77 187
1 78 61
1 79 226
1 80 225
1 81 28
1 82 266
1 83 112
1 84 203
1 85 155
1 86 127
1 87 35
1 88 131
1 89 160
1 90 150
2 3 201
2 4 22
2 5 266
2 6 30
2 7 82
2 8 16
2 9 90
2 10 188
2 11 51
2 12 218
2 13 247
2 14 81
2 15 94
2 16 64
2 17 108
2 18 123
2 19 224
2 20 128
2 21 0
2 22 103
2 23 170
2 24 88
2 25 206
2 26 147
2 27 0
2 28 64
2 29 72
2 30 120
2 31 154
2 32 30
2 33 28
2 34 11
2 35 0
2 36 115
2 37 12
2 38 158
2 39 146
2 40 68
2 41 162
2 42 174
2 43 6
2 44 189
2 45 107
2 46 113
2 47 139
2 48 240
2 49 29
2 50 155
2 51 96
2 52 189
2 53 74
2 54 258
2 55 258
2 56 48
2 57 225
2 58 244
2 59 106
2 60 135
2 61 59
2 62 129
2 63 0
2 64 92
2 65 138
2 66 179
2 67 13
2 68 256
2 69 172
2 70 9
2 71 31
2 72 102
2 73 252
2 74 90
2 75 166
2 76 139
2 77 45
2 78 13
2 79 172
2 80 82
2 81 242
2 82 147
2 83 5
2 84 217
2 85 10
2 86 250
2 87 194
2 88 262
2 89 237
2 90 118
3 4 135
3 5 36
3 6 135
3 7 139
3 8 153
3 9 183
3 10 92
3 11 83
3 12 169
3 13 56
3 14 148
3 15 141
3 16 125
3 17 131
3 18 4
3 19 133
3 20 224
3 21 148
3 22 178
3 23 115
3 24 25
3 25 191
3 26 43
3 27 237
3 28 262
3 29 49
3 30 153
3 31 97
3 32 92
3 33 225
3 34 98
3 35 228
3 36 2
3 37 50
3 38 151
3 39 231
3 40 247
3 41 44
3 42 168
3 43 197
3 44 178
3 45 99
3 46 33
3 47 96
3 48 119
3 49 198
3 50 51
3 51 164
3 52 38
3 53 156
3 54 262
3 55 203
3 56 258
3 57 108
3 58 239
3 59 144
3 60 187
3 61 186
3 62 70
3 63 42
3 64 43
3 65 1
3 66 231
3 67 116
3 68 20
3 69 249
3 70 219
3 71 260
3 72 245
3 73 218
3 74 142
3 75 259
3 76 36
3 77 121
3 78 66
3 79 178
3 80 109
3 81 51
3 82 236
3 83 203
3 84 21
3 85 175
3 86 115
3 87 233
3 88 258
3 89 265
3 90 210
4 5 219
4 6 268
4 7 71
4 8 206
4 9 147
4 10 238
4 11 162
4 12 148
4 13 252
4 14 54
4 15 261
4 16 92
4 17 189
4 18 244
4 19 28
4 20 100
4 21 156
4 22 240
4 23 10
4 24 12
4 25 99
4 26 238
4 27 137
4 28 40
4 29 16
4 30 138
4 31 25
4 32 69
4 33 8
4 34 237
4 35 116
4 36 129
4 37 248
4 38 228
4 39 197
4 40 126
4 41 188
4 42 227
4 43 202
4 44 187
4 45 101
4 46 130
4 47 266
4 48 72
4 49 193
4 50 236
4 51 109
4 52 239
4 53 32
4 54 139
4 55 39
4 56 51
4 57 234
4 58 111
4 59 157
4 60 175
4 61 207
4 62 83
4 63 224
4 64 127
4 65 237
4 66 96
4 67 212
4 68 49
4 69 170
4 70 86
4 71 29
4 72 128
4 73 15
4 74 185
4 75 91
4 76 258
4 77 81
4 78 254
4 79 68
4 80 234
4 81 171
4 82 146
4 83 255
4 84 154
4 85 98
4 86 7
4 87 235
4 88 44
4 89 165
4 90 248
5 6 107
5 7 197
5 8 177
5 9 22
5 10 39
5 11 32
5 12 47
5 13 81
5 14 183
5 15 137
5 16 140
5 17 260
5 18 231
5 19 253
5 20 6
5 21 129
5 22 41
5 23 88
5 24 35
5 25 145
5 26 25
5 27 20
5 28 197
5 29 42
5 30 137
5 31 231
5 32 264
5 33 74
5 34 255
5 35 101
5 36 142
5 37 268
5 38 87
5 39 45
5 40 54
5 41 79
5 42 179
5 43 207
5 44 207
5 45 232
5 46 195
5 47 158
5 48 164
5 49 95
5 50 32
5 51 136
5 52 202
5 53 49
5 54 69
5 55 101
5 56 173
5 57 16
5 58 170
5 59 34
5 60 139
5 61 47
5 62 167
5 63 122
5 64 151
5 65 205
5 66 134
5 67 193
5 68 80
5 69 46
5 70 266
5 71 202
5 72 10
5 73 143
5 74 160
5 75 47
5 76 3
5 77 234
5 78 57
5 79 185
5 80 101
5 81 48
5 82 245
5 83 208
5 84 246
5 85 150
5 86 51
5 87 149
5 88 58
5 89 81
5 90 114
6 7 68
6 8 111
6 9 146
6 10 77
6 11 10
6 12 27
6 13 168
6 14 235
6 15 26
6 16 65
6 17 10
6 18 235
6 19 147
6 20 113
6 21 74
6 22 221
6 23 184
6 24 34
6 25 224
6 26 62
6 27 259
6 28 85
6 29 34
6 30 75
6 31 28
6 32 227
6 33 156
6 34 51
6 35 164
6 36 223
6 37 142
6 38 172
6 39 153
6 40 200
6 41 204
6 42 26
6 43 200
6 44 148
6 45 171
6 46 135
6 47 143
6 48 252
6 49 221
6 50 131
6 51 44
6 52 81
6 53 128
6 54 21
6 55 57
6 56 148
6 57 202
6 58 41
6 59 148
6 60 80
6 61 49
6 62 226
6 63 220
6 64 54
6 65 42
6 66 154
6 67 187
6 68 163
6 69 75
6 70 218
6 71 103
6 72 155
6 73 30
6 74 27
6 75 48
6 76 107
6 77 263
6 78 263
6 79 178
6 80 197
6 81 191
6 82 110
6 83 57
6 84 213
6 85 55
6 86 217
6 87 260
6 88 64
6 89 83
6 90 232
7 8 187
7 9 15
7 10 256
7 11 13
7 12 116
7 13 210
7 14 188
7 15 56
7 16 21
7 17 217
7 18 9
7 19 93
7 20 164
7 21 110
7 22 74
7 23 257
7 24 256
7 25 260
7 26 221
7 27 206
7 28 134
7 29 63
7 30 194
7 31 244
7 32 226
7 33 72
7 34 213
7 35 32
7 36 41
7 37 158
7 38 55
7 39 20
7 40 179
7 41 11
7 42 6
7 43 166
7 44 52
7 45 8
7 46 258
7 47 133
7 48 59
7 49 168
7 50 15
7 51 259
7 52 164
7 53 83
7 54 240
7 55 67
7 56 248
7 57 67
7 58 186
7 59 51
7 60 109
7 61 72
7 62 130
7 63 65
7 64 109
7 65 130
7 66 267
7 67 113
7 68 1
7 69 68
7 70 6
7 71 160
7 72 246
7 73 267
7 74 193
7 75 22
7 76 191
7 77 94
7 78 17
7 79 78
7 80 143
7 81 105
7 82 75
7 83 41
7 84 74
7 85 199
7 86 160
7 87 221
7 88 31
7 89 187
7 90 124
8 9 227
8 10 150
8 11 90
8 12 191
8 13 111
8 14 108
8 15 49
8 16 201
8 17 115
8 18 86
8 19 49
8 20 246
8 21 78
8 22 65
8 23 83
8 24 131
8 25 40
8 26 84
8 27 215
8 28 241
8 29 23
8 30 219
8 31 159
8 32 80
8 33 151
8 34 11
8 35 245
8 36 208
8 37 196
8 38 249
8 39 224
8 40 225
8 41 40
8 42 240
8 43 33
8 44 92
8 45 61
8 46 264
8 47 52
8 48 51
8 49 254
8 50 151
8 51 147
8 52 141
8 53 75
8 54 7
8 55 126
8 56 47
8 57 46
8 58 5
8 59 40
8 60 43
8 61 90
8 62 186
8 63 129
8 64 240
8 65 256
8 66 178
8 67 48
8 68 198
8 69 220
8 70 215
8 71 251
8 72 153
8 73 136
8 74 83
8 75 96
8 76 141
8 77 62
8 78 257
8 79 128
8 80 121
8 81 113
8 82 267
8 83 138
8 84 252
8 85 29
8 86 36
8 87 160
8 88 110
8 89 224
8 90 134
9 10 192
9 11 263
9 12 11
9 13 116
9 14 231
9 15 185
9 16 62
9 17 150
9 18 183
9 19 217
9 20 127
9 21 175
9 22 131
9 23 74
9 24 250
9 25 212
9 26 196
9 27 181
9 28 250
9 29 262
9 30 183
9 31 112
9 32 99
9 33 38
9 34 21
9 35 104
9 36 140
9 37 23
9 38 115
9 39 208
9 40 42
9 41 145
9 42 221
9 43 47
9 44 46
9 45 173
9 46 48
9 47 117
9 48 73
9 49 36
9 50 203
9 51 84
9 52 127
9 53 151
9 54 1
9 55 166
9 56 217
9 57 91
9 58 72
9 59 19
9 60 187
9 61 227
9 62 197
9 63 119
9 64 101
9 65 230
9 66 227
9 67 158
9 68 67
9 69 164
9 70 164
9 71 222
9 72 156
9 73 238
9 74 71
9 75 109
9 76 88
9 77 123
9 78 5
9 79 219
9 80 75
9 81 132
9 82 83
9 83 268
9 84 151
9 85 120
9 86 219
9 87 41
9 88 118
9 89 73
9 90 73
10 11 220
10 12 58
10 13 106
10 14 158
10 15 239
10 16 97
10 17 68
10 18 75
10 19 58
10 20 36
10 21 231
10 22 111
10 23 110
10 24 239
10 25 113
10 26 130
10 27 213
10 28 238
10 29 185
10 30 128
10 31 26
10 32 177
10 33 151
10 34 165
10 35 93
10 36 184
10 37 254
10 38 171
10 39 147
10 40 154
10 41 88
10 42 81
10 43 19
10 44 83
10 45 171
10 46 185
10 47 193
10 48 72
10 49 261
10 50 114
10 51 29
10 52 46
10 53 68
10 54 43
10 55 37
10 56 89
10 57 114
10 58 262
10 59 201
10 60 136
10 61 187
10 62 263
10 63 157
10 64 7
10 65 34
10 66 14
10 67 108
10 68 98
10 69 207
10 70 216
10 71 154
10 72 9
10 73 49
10 74 139
10 75 29
10 76 133
10 77 75
10 78 104
10 79 224
10 80 263
10 81 149
10 82 35
10 83 267
10 84 143
10 85 231
10 86 5
10 87 25
10 88 162
10 89 10
10 90 48
11 12 100
11 13 199
11 14 249
11 15 239
11 16 189
11 17 39
11 18 269
11 19 269
11 20 83
11 21 189
11 22 180
11 23 252
11 24 259
11 25 141
11 26 14
11 27 102
11 28 227
11 29 24
11 30 113
11 31 180
11 32 227
11 33 236
11 34 260
11 35 157
11 36 27
11 37 38
11 38 35
11 39 178
11 40 257
11 41 119
11 42 173
11 43 85
11 44 265
11 45 132
11 46 168
11 47 88
11 48 192
11 49 213
11 50 260
11 51 122
11 52 132
11 53 253
11 54 67
11 55 238
11 56 267
11 57 82
11 58 53
11 59 96
11 60 31
11 61 135
11 62 136
11 63 228
11 64 236
11 65 180
11 66 151
11 67 174
11 68 215
11 69 39
11 70 253
11 71 7
11 72 204
11 73 145
11 74 10
11 75 10
11 76 73
11 77 9
11 78 176
11 79 145
11 80 16
11 81 74
11 82 7
11 83 205
11 84 249
11 85 247
11 86 204
11 87 144
11 88 233
11 89 263
11 90 39
12 13 30
12 14 72
12 15 80
12 16 254
12 17 15
12 18 98
12 19 86
12 20 135
12 21 178
12 22 241
12 23 65
12 24 55
12 25 206
12 26 67
12 27 139
12 28 32
12 29 123
12 30 146
12 31 116
12 32 224
12 33 209
12 34 190
12 35 171
12 36 251
12 37 170
12 38 160
12 39 212
12 40 209
12 41 13
12 42 224
12 43 227
12 44 243
12 45 48
12 46 217
12 47 161
12 48 92
12 49 47
12 50 249
12 51 241
12 52 25
12 53 90
12 54 254
12 55 217
12 56 115
12 57 87
12 58 31
12 59 259
12 60 70
12 61 136
12 62 129
12 63 45
12 64 158
12 65 81
12 66 126
12 67 174
12 68 159
12 69 174
12 70 8
12 71 174
12 72 211
12 73 45
12 74 91
12 75 54
12 76 67
12 77 87
12 78 139
12 79 163
12 80 189
12 81 251
12 82 80
12 83 244
12 84 147
12 85 229
12 86 113
12 87 34
12 88 108
12 89 251
12 90 175
13 14 53
13 15 65
13 16 269
13 17 49
13 18 81
13 19 268
13 20 263
13 21 129
13 22 187
13 23 129
13 24 8
13 25 191
13 26 203
13 27 160
13 28 1
13 29 232
13 30 243
13 31 110
13 32 73
13 33 90
13 34 102
13 35 164
13 36 45
13 37 162
13 38 213
13 39 37
13 40 68
13 41 60
13 42 126
13 43 49
13 44 45
13 45 107
13 46 153
13 47 157
13 48 107
13 49 236
13 50 6
13 51 196
13 52 264
13 53 197
13 54 2
13 55 145
13 56 245
13 57 209
13 58 114
13 59 135
13 60 232
13 61 214
13 62 214
13 63 30
13 64 241
13 65 126
13 66 97
13 67 232
13 68 8
13 69 65
13 70 10
13 71 63
13 72 130
13 73 246
13 74 176
13 75 192
13 76 109
13 77 152
13 78 71
13 79 157
13 80 11
13 81 101
13 82 152
13 83 41
13 84 51
13 85 243
13 86 4
13 87 204
13 88 158
13 89 233
13 90 4
14 15 19
14 16 57
14 17 217
14 18 189
14 19 245
14 20 73
14 21 182
14 22 193
14 23 55
14 24 25
14 25 197
14 26 41
14 27 194
14 28 208
14 29 77
14 30 231
14 31 37
14 32 6
14 33 32
14 34 20
14 35 166
14 36 26
14 37 43
14 38 239
14 39 25
14 40 64
14 41 209
14 42 246
14 43 159
14 44 116
14 45 221
14 46 248
14 47 60
14 48 102
14 49 88
14 50 82
14 51 187
14 52 10
14 53 118
14 54 263
14 55 71
14 56 84
14 57 194
14 58 231
14 59 251
14 60 169
14 61 68
14 62 15
14 63 221
14 64 42
14 65 224
14 66 117
14 67 10
14 68 69
14 69 46
14 70 158
14 71 191
14 72 168
14 73 261
14 74 227
14 75 131
14 76 47
14 77 205
14 78 178
14 79 128
14 80 125
14 81 19
14 82 208
14 83 115
14 84 171
14 85 162
14 86 78
14 87 212
14 88 145
14 89 170
14 90 57
15 16 11
15 17 2
15 18 134
15 19 112
15 20 164
15 21 158
15 22 233
15 23 150
15 24 200
15 25 247
15 26 31
15 27 199
15 28 75
15 29 143
15 30 176
15 31 159
15 32 113
15 33 86
15 34 84
15 35 130
15 36 117
15 37 154
15 38 104
15 39 232
15 40 161
15 41 28
15 42 115
15 43 45
15 44 139
15 45 219
15 46 229
15 47 192
15 48 258
15 49 215
15 50 101
15 51 173
15 52 38
15 53 176
15 54 148
15 55 192
15 56 234
15 57 260
15 58 215
15 59 174
15 60 121
15 61 180
15 62 261
15 63 166
15 64 193
15 65 199
15 66 202
15 67 61
15 68 97
15 69 144
15 70 225
15 71 171
15 72 204
15 73 200
15 74 203
15 75 139
15 76 225
15 77 64
15 78 76
15 79 117
15 80 269
15 81 211
15 82 154
15 83 44
15 84 153
15 85 198
15 86 73
15 87 195
15 88 78
15 89 7
15 90 194
16 17 126
16 18 263
16 19 215
16 20 130
16 21 182
16 22 11
16 23 250
16 24 112
16 25 226
16 26 37
16 27 5
16 28 148
16 29 194
16 30 86
16 31 242
16 32 84
16 33 164
16 34 151
16 35 205
16 36 268
16 37 30
16 38 163
16 39 143
16 40 144
16 41 213
16 42 216
16 43 59
16 44 95
16 45 48
16 46 198
16 47 156
16 48 151
16 49 149
16 50 14
16 51 216
16 52 85
16 53 174
16 54 196
16 55 157
16 56 262
16 57 47
16 58 88
16 59 89
16 60 116
16 61 260
16 62 78
16 63 140
16 64 17
16 65 27
16 66 175
16 67 173
16 68 183
16 69 207
16 70 198
16 71 254
16 72 234
16 73 23
16 74 114
16 75 129
16 76 265
16 77 127
16 78 133
16 79 169
16 80 69
16 81 54
16 82 5
16 83 47
16 84 122
16 85 121
16 86 254
16 87 51
16 88 14
16 89 142
16 90 83
17 18 226
17 19 79
17 20 46
17 21 135
17 22 208
17 23 38
17 24 82
17 25 147
17 26 73
17 27 107
17 28 37
17 29 227
17 30 107
17 31 169
17 32 112
17 33 121
17 34 54
17 35 39
17 36 27
17 37 244
17 38 72
17 39 241
17 40 140
17 41 243
17 42 104
17 43 152
17 44 179
17 45 145
17 46 123
17 47 166
17 48 73
17 49 88
17 50 108
17 51 52
17 52 170
17 53 151
17 54 246
17 55 244
17 56 135
17 57 260
17 58 191
17 59 98
17 60 148
17 61 258
17 62 171
17 63 164
17 64 251
17 65 111
17 66 86
17 67 96
17 68 224
17 69 28
17 70 183
17 71 38
17 72 36
17 73 139
17 74 171
17 75 125
17 76 63
17 77 167
17 78 210
17 79 194
17 80 56
17 81 226
17 82 261
17 83 66
17 84 58
17 85 44
17 86 144
17 87 259
17 88 81
17 89 151
17 90 156
18 19 42
18 20 136
18 21 263
18 22 34
18 23 40
18 24 3
18 25 46
18 26 174
18 27 150
18 28 96
18 29 188
18 30 2
18 31 82
18 32 41
18 33 35
18 34 234
18 35 209
18 36 27
18 37 121
18 38 134
18 39 2
18 40 32
18 41 118
18 42 255
18 43 28
18 44 167
18 45 136
18 46 58
18 47 96
18 48 79
18 49 174
18 50 238
18 51 6
18 52 126
18 53 24
18 54 65
18 55 138
18 56 104
18 57 266
18 58 99
18 59 26
18 60 195
18 61 243
18 62 155
18 63 168
18 64 105
18 65 108
18 66 258
18 67 94
18 68 94
18 69 29
18 70 71
18 71 226
18 72 139
18 73 257
18 74 1
18 75 85
18 76 204
18 77 56
18 78 88
18 79 193
18 80 8
18 81 90
18 82 175
18 83 224
18 84 20
18 85 146
18 86 65
18 87 47
18 88 24
18 89 212
18 90 68
19 20 2
19 21 103
19 22 141
19 23 188
19 24 62
19 25 113
19 26 15
19 27 27
19 28 241
19 29 103
19 30 44
19 31 48
19 32 226
19 33 163
19 34 167
19 35 45
19 36 211
19 37 148
19 38 147
19 39 252
19 40 96
19 41 63
19 42 62
19 43 257
19 44 40
19 45 267
19 46 255
19 47 212
19 48 5
19 49 124
19 50 78
19 51 209
19 52 184
19 53 15
19 54 104
19 55 230
19 56 249
19 57 96
19 58 14
19 59 226
19 60 165
19 61 233
19 62 51
19 63 114
19 64 106
19 65 108
19 66 91
19 67 38
19 68 99
19 69 12
19 70 143
19 71 16
19 72 39
19 73 15
19 74 166
19 75 105
19 76 185
19 77 193
19 78 187
19 79 51
19 80 11
19 81 169
19 82 186
19 83 129
19 84 86
19 85 263
19 86 109
19 87 85
19 88 216
19 89 49
19 90 266
20 21 252
20 22 215
20 23 72
20 24 222
20 25 113
20 26 162
20 27 121
20 28 129
20 29 209
20 30 145
20 31 251
20 32 55
20 33 153
20 34 216
20 35 32
20 36 205
20 37 169
20 38 72
20 39 182
20 40 247
20 41 208
20 42 161
20 43 40
20 44 243
20 45 63
20 46 28
20 47 3
20 48 139
20 49 150
20 50 215
20 51 229
20 52 173
20 53 250
20 54 163
20 55 164
20 56 112
20 57 259
20 58 206
20 59 153
20 60 216
20 61 64
20 62 212
20 63 201
20 64 19
20 65 96
20 66 61
20 67 221
20 68 172
20 69 63
20 70 190
20 71 113
20 72 113
20 73 44
20 74 57
20 75 216
20 76 88
20 77 168
20 78 197
20 79 68
20 80 142
20 81 117
20 82 36
20 83 256
20 84 142
20 85 265
20 86 171
20 87 54
20 88 144
20 89 145
20 90 129
21 22 187
21 23 237
21 24 5
21 25 219
21 26 123
21 27 172
21 28 31
21 29 196
21 30 162
21 31 208
21 32 198
21 33 76
21 34 93
21 35 203
21 36 228
21 37 248
21 38 76
21 39 150
21 40 173
21 41 152
21 42 146
21 43 247
21 44 201
21 45 56
21 46 140
21 47 185
21 48 198
21 49 96
21 50 257
21 51 260
21 52 52
21 53 221
21 54 129
21 55 24
21 56 1
21 57 88
21 58 53
21 59 177
21 60 264
21 61 75
21 62 196
21 63 257
21 64 131
21 65 33
21 66 116
21 67 109
21 68 12
21 69 142
21 70 223
21 71 113
21 72 62
21 73 19
21 74 123
21 75 3
21 76 135
21 77 96
21 78 263
21 79 242
21 80 147
21 81 220
21 82 148
21 83 269
21 84 64
21 85 106
21 86 52
21 87 242
21 88 161
21 89 140
21 90 230
22 23 164
22 24 168
22 25 230
22 26 223
22 27 264
22 28 244
22 29 125
22 30 117
22 31 220
22 32 114
22 33 101
22 34 151
22 35 147
22 36 168
22 37 106
22 38 216
22 39 56
22 40 149
22 41 222
22 42 146
22 43 18
22 44 55
22 45 164
22 46 260
22 47 127
22 48 181
22 49 234
22 50 133
22 51 97
22 52 43
22 53 95
22 54 0
22 55 169
22 56 158
22 57 165
22 58 247
22 59 152
22 60 108
22 61 214
22 62 56
22 63 151
22 64 220
22 65 164
22 66 104
22 67 79
22 68 79
22 69 137
22 70 62
22 71 69
22 72 12
22 73 269
22 74 59
22 75 266
22 76 248
22 77 196
22 78 186
22 79 156
22 80 161
22 81 129
22 82 14
22 83 72
22 84 18
22 85 115
22 86 68
22 87 172
22 88 73
22 89 8
22 90 226
23 24 148
23 25 152
23 26 240
23 27 147
23 28 24
23 29 11
23 30 17
23 31 212
23 32 199
23 33 241
23 34 124
23 35 10
23 36 101
23 37 241
23 38 245
23 39 174
23 40 259
23 41 256
23 42 33
23 43 192
23 44 74
23 45 20
23 46 7
23 47 151
23 48 202
23 49 28
23 50 36
23 51 188
23 52 155
23 53 42
23 54 85
23 55 11
23 56 211
23 57 36
23 58 262
23 59 204
23 60 253
23 61 27
23 62 63
23 63 195
23 64 23
23 65 106
23 66 13
23 67 185
23 68 93
23 69 156
23 70 12
23 71 69
23 72 104
23 73 108
23 74 46
23 75 74
23 76 211
23 77 83
23 78 89
23 79 23
23 80 187
23 81 204
23 82 22
23 83 103
23 84 234
23 85 223
23 86 228
23 87 237
23 88 145
23 89 9
23 90 123
24 25 243
24 26 164
24 27 93
24 28 97
24 29 71
24 30 216
24 31 190
24 32 127
24 33 266
24 34 204
24 35 155
24 36 147
24 37 52
24 38 10
24 39 136
24 40 59
24 41 77
24 42 234
24 43 177
24 44 112
24 45 21
24 46 45
24 47 35
24 48 145
24 49 43
24 50 227
24 51 84
24 52 128
24 53 72
24 54 25
24 55 157
24 56 34
24 57 167
24 58 89
24 59 96
24 60 207
24 61 143
24 62 137
24 63 159
24 64 10
24 65 267
24 66 221
24 67 200
24 68 64
24 69 101
24 70 222
24 71 61
24 72 42
24 73 130
24 74 144
24 75 193
24 76 194
24 77 198
24 78 146
24 79 149
24 80 235
24 81 3
24 82 8
24 83 111
24 84 180
24 85 208
24 86 155
24 87 131
24 88 81
24 89 79
24 90 103
25 26 250
25 27 160
25 28 131
25 29 50
25 30 250
25 31 120
25 32 141
25 33 146
25 34 163
25 35 41
25 36 160
25 37 175
25 38 204
25 39 101
25 40 254
25 41 198
25 42 33
25 43 101
25 44 92
25 45 170
25 46 152
25 47 265
25 48 179
25 49 19
25 50 196
25 51 125
25 52 175
25 53 166
25 54 31
25 55 212
25 56 258
25 57 254
25 58 250
25 59 96
25 60 139
25 61 208
25 62 36
25 63 35
25 64 86
25 65 239
25 66 125
25 67 186
25 68 181
25 69 255
25 70 111
25 71 39
25 72 39
25 73 39
25 74 143
25 75 122
25 76 56
25 77 31
25 78 181
25 79 183
25 80 77
25 81 108
25 82 109
25 83 240
25 84 48
25 85 74
25 86 237
25 87 79
25 88 157
25 89 85
25 90 52
26 27 71
26 28 3
26 29 202
26 30 96
26 31 229
26 32 117
26 33 66
26 34 214
26 35 129
26 36 267
26 37 50
26 38 253
26 39 238
26 40 204
26 41 123
26 42 64
26 43 254
26 44 41
26 45 225
26 46 101
26 47 50
26 48 252
26 49 113
26 50 199
26 51 241
26 52 204
26 53 13
26 54 160
26 55 150
26 56 48
26 57 216
26 58 2
26 59 22
26 60 62
26 61 242
26 62 80
26 63 258
26 64 30
26 65 146
26 66 243
26 67 208
26 68 68
26 69 61
26 70 211
26 71 239
26 72 76
26 73 207
26 74 42
26 75 35
26 76 112
26 77 154
26 78 95
26 79 123
26 80 253
26 81 95
26 82 238
26 83 198
26 84 255
26 85 34
26 86 143
26 87 224
26 88 143
26 89 13
26 90 140
27 28 218
27 29 67
27 30 73
27 31 55
27 32 145
27 33 57
27 34 256
27 35 8
27 36 78
27 37 235
27 38 145
27 39 258
27 40 27
27 41 142
27 42 135
27 43 33
27 44 49
27 45 34
27 46 150
27 47 117
27 48 13
27 49 252
27 50 136
27 51 129
27 52 168
27 53 13
27 54 3
27 55 138
27 56 232
27 57 186
27 58 137
27 59 245
27 60 255
27 61 167
27 62 60
27 63 223
27 64 65
27 65 138
27 66 98
27 67 231
27 68 27
27 69 16
27 70 90
27 71 77
27 72 169
27 73 31
27 74 136
27 75 184
27 76 132
27 77 254
27 78 239
27 79 112
27 80 136
27 81 225
27 82 148
27 83 76
27 84 80
27 85 16
27 86 69
27 87 258
27 88 3
27 89 192
27 90 30
28 29 168
28 30 165
28 31 157
28 32 0
28 33 215
28 34 133
28 35 137
28 36 115
28 37 88
28 38 107
28 39 37
28 40 51
28 41 268
28 42 26
28 43 84
28 44 173
28 45 215
28 46 102
28 47 15
28 48 235
28 49 92
28 50 183
28 51 123
28 52 264
28 53 245
28 54 213
28 55 164
28 56 182
28 57 181
28 58 269
28 59 142
28 60 266
28 61 14
28 62 18
28 63 232
28 64 57
28 65 214
28 66 206
28 67 141
28 68 37
28 69 103
28 70 171
28 71 205
28 72 68
28 73 190
28 74 250
28 75 32
28 76 48
28 77 126
28 78 73
28 79 142
28 80 50
28 81 8
28 82 53
28 83 27
28 84 103
28 85 2
28 86 130
28 87 129
28 88 66
28 89 30
28 90 198
29 30 260
29 31 3
29 32 80
29 33 123
29 34 175
29 35 142
29 36 172
29 37 257
29 38 203
29 39 14
29 40 265
29 41 30
29 42 250
29 43 243
29 44 81
29 45 217
29 46 177
29 47 110
29 48 204
29 49 185
29 50 77
29 51 198
29 52 58
29 53 241
29 54 49
29 55 260
29 56 55
29 57 178
29 58 135
29 59 247
29 60 14
29 61 186
29 62 121
29 63 211
29 64 16
29 65 46
29 66 78
29 67 132
29 68 197
29 69 116
29 70 54
29 71 63
29 72 190
29 73 263
29 74 219
29 75 29
29 76 85
29 77 146
29 78 219
29 79 259
29 80 237
29 81 14
29 82 57
29 83 206
29 84 142
29 85 176
29 86 19
29 87 138
29 88 239
29 89 122
29 90 10
30 31 70
30 32 77
30 33 137
30 34 203
30 35 44
30 36 137
30 37 154
30 38 23
30 39 194
30 40 169
30 41 48
30 42 262
30 43 269
30 44 8
30 45 45
30 46 259
30 47 221
30 48 86
30 49 113
30 50 110
30 51 265
30 52 3
30 53 253
30 54 64
30 55 156
30 56 162
30 57 91
30 58 68
30 59 99
30 60 262
30 61 0
30 62 110
30 63 253
30 64 221
30 65 195
30 66 141
30 67 269
30 68 234
30 69 137
30 70 111
30 71 212
30 72 213
30 73 102
30 74 128
30 75 37
30 76 97
30 77 52
30 78 74
30 79 212
30 80 222
30 81 91
30 82 40
30 83 149
30 84 36
30 85 93
30 86 6
30 87 213
30 88 193
30 89 153
30 90 133
31 32 1
31 33 157
31 34 178
31 35 57
31 36 159
31 37 207
31 38 192
31 39 115
31 40 127
31 41 222
31 42 120
31 43 220
31 44 26
31 45 164
31 46 65
31 47 35
31 48 57
31 49 13
31 50 259
31 51 246
31 52 154
31 53 23
31 54 236
31 55 162
31 56 177
31 57 32
31 58 107
31 59 18
31 60 44
31 61 115
31 62 119
31 63 60
31 64 253
31 65 3
31 66 14
31 67 76
31 68 0
31 69 170
31 70 14
31 71 190
31 72 173
31 73 28
31 74 34
31 75 74
31 76 211
31 77 13
31 78 140
31 79 120
31 80 224
31 81 267
31 82 94
31 83 262
31 84 38
31 85 3
31 86 217
31 87 31
31 88 135
31 89 173
31 90 119
32 33 114
32 34 144
32 35 158
32 36 184
32 37 199
32 38 167
32 39 218
32 40 35
32 41 129
32 42 186
32 43 59
32 44 264
32 45 183
32 46 166
32 47 223
32 48 92
32 49 132
32 50 81
32 51 153
32 52 69
32 53 241
32 54 91
32 55 250
32 56 52
32 57 119
32 58 128
32 59 147
32 60 33
32 61 105
32 62 1
32 63 142
32 64 209
32 65 21
32 66 87
32 67 42
32 68 24
32 69 15
32 70 73
32 71 144
32 72 214
32 73 55
32 74 172
32 75 60
32 76 266
32 77 259
32 78 106
32 79 3
32 80 169
32 81 234
32 82 185
32 83 213
32 84 62
32 85 258
32 86 197
32 87 196
32 88 78
32 89 58
32 90 105
33 34 240
33 35 175
33 36 89
33 37 211
33 38 191
33 39 171
33 40 216
33 41 260
33 42 120
33 43 48
33 44 255
33 45 173
33 46 34
33 47 13
33 48 103
33 49 136
33 50 241
33 51 109
33 52 165
33 53 151
33 54 182
33 55 239
33 56 204
33 57 190
33 58 130
33 59 165
33 60 267
33 61 192
33 62 246
33 63 156
33 64 212
33 65 253
33 66 160
33 67 38
33 68 66
33 69 216
33 70 190
33 71 205
33 72 5
33 73 235
33 74 124
33 75 123
33 76 197
33 77 183
33 78 142
33 79 160
33 80 76
33 81 234
33 82 218
33 83 2
33 84 260
33 85 49
33 86 263
33 87 107
33 88 237
33 89 13
33 90 183
34 35 128
34 36 7
34 37 47
34 38 243
34 39 232
34 40 123
34 41 18
34 42 140
34 43 262
34 44 41
34 45 47
34 46 185
34 47 84
34 48 260
34 49 252
34 50 61
34 51 239
34 52 122
34 53 201
34 54 5
34 55 214
34 56 178
34 57 81
34 58 240
34 59 2
34 60 264
34 61 145
34 62 197
34 63 192
34 64 4
34 65 137
34 66 156
34 67 266
34 68 127
34 69 211
34 70 62
34 71 169
34 72 163
34 73 165
34 74 187
34 75 119
34 76 11
34 77 98
34 78 200
34 79 151
34 80 94
34 81 153
34 82 204
34 83 175
34 84 189
34 85 49
34 86 9
34 87 251
34 88 148
34 89 262
34 90 20
35 36 196
35 37 105
35 38 30
35 39 66
35 40 221
35 41 83
35 42 209
35 43 43
35 44 141
35 45 26
35 46 268
35 47 162
35 48 83
35 49 79
35 50 45
35 51 113
35 52 37
35 53 54
35 54 226
35 55 70
35 56 206
35 57 83
35 58 189
35 59 159
35 60 31
35 61 39
35 62 56
35 63 123
35 64 73
35 65 191
35 66 244
35 67 234
35 68 22
35 69 97
35 70 66
35 71 122
35 72 176
35 73 87
35 74 209
35 75 20
35 76 44
35 77 196
35 78 96
35 79 101
35 80 172
35 81 154
35 82 37
35 83 12
35 84 268
35 85 116
35 86 6
35 87 261
35 88 76
35 89 228
35 90 132
36 37 26
36 38 22
36 39 133
36 40 20
36 41 204
36 42 180
36 43 36
36 44 152
36 45 119
36 46 78
36 47 119
36 48 85
36 49 201
36 50 160
36 51 71
36 52 253
36 53 268
36 54 139
36 55 21
36 56 250
36 57 122
36 58 249
36 59 76
36 60 146
36 61 127
36 62 205
36 63 23
36 64 244
36 65 142
36 66 32
36 67 250
36 68 93
36 69 13
36 70 185
36 71 50
36 72 225
36 73 119
36 74 24
36 75 169
36 76 220
36 77 177
36 78 134
36 79 268
36 80 144
36 81 40
36 82 264
36 83 203
36 84 98
36 85 227
36 86 177
36 87 11
36 88 214
36 89 242
36 90 251
37 38 81
37 39 81
37 40 164
37 41 267
37 42 94
37 43 39
37 44 34
37 45 33
37 46 81
37 47 164
37 48 199
37 49 264
37 50 137
37 51 100
37 52 242
37 53 231
37 54 168
37 55 209
37 56 105
37 57 109
37 58 92
37 59 169
37 60 52
37 61 139
37 62 16
37 63 242
37 64 132
37 65 111
37 66 141
37 67 65
37 68 235
37 69 91
37 70 244
37 71 78
37 72 182
37 73 235
37 74 118
37 75 33
37 76 100
37 77 13
37 78 9
37 79 53
37 80 123
37 81 179
37 82 266
37 83 114
37 84 6
37 85 37
37 86 75
37 87 141
37 88 43
37 89 208
37 90 144
38 39 12
38 40 112
38 41 2
38 42 174
38 43 162
38 44 254
38 45 59
38 46 176
38 47 244
38 48 113
38 49 243
38 50 2
38 51 30
38 52 131
38 53 264
38 54 124
38 55 183
38 56 215
38 57 127
38 58 33
38 59 232
38 60 49
38 61 85
38 62 218
38 63 92
38 64 245
38 65 97
38 66 13
38 67 227
38 68 219
38 69 160
38 70 177
38 71 248
38 72 24
38 73 186
38 74 241
38 75 261
38 76 172
38 77 104
38 78 218
38 79 31
38 80 99
38 81 88
38 82 61
38 83 66
38 84 188
38 85 164
38 86 115
38 87 124
38 88 91
38 89 186
38 90 169
39 40 17
39 41 178
39 42 267
39 43 182
39 44 11
39 45 65
39 46 27
39 47 240
39 48 176
39 49 176
39 50 135
39 51 161
39 52 269
39 53 148
39 54 122
39 55 200
39 56 154
39 57 123
39 58 58
39 59 153
39 60 113
39 61 87
39 62 91
39 63 30
39 64 233
39 65 92
39 66 93
39 67 210
39 68 157
39 69 112
39 70 128
39 71 219
39 72 173
39 73 210
39 74 33
39 75 255
39 76 155
39 77 66
39 78 208
39 79 132
39 80 127
39 81 241
39 82 14
39 83 145
39 84 105
39 85 78
39 86 191
39 87 44
39 88 144
39 89 215
39 90 237
40 41 206
40 42 239
40 43 226
40 44 121
40 45 262
40 46 254
40 47 108
40 48 94
40 49 31
40 50 79
40 51 257
40 52 150
40 53 13
40 54 265
40 55 190
40 56 267
40 57 29
40 58 173
40 59 60
40 60 215
40 61 128
40 62 82
40 63 180
40 64 38
40 65 94
40 66 245
40 67 115
40 68 145
40 69 141
40 70 265
40 71 177
40 72 33
40 73 205
40 74 205
40 75 225
40 76 86
40 77 122
40 78 33
40 79 192
40 80 81
40 81 139
40 82 123
40 83 62
40 84 196
40 85 87
40 86 203
40 87 133
40 88 204
40 89 43
40 90 208
41 42 262
41 43 241
41 44 199
41 45 170
41 46 198
41 47 241
41 48 151
41 49 194
41 50 148
41 51 222
41 52 56
41 53 260
41 54 51
41 55 213
41 56 44
41 57 129
41 58 267
41 59 112
41 60 119
41 61 78
41 62 180
41 63 228
41 64 102
41 65 75
41 66 9
41 67 106
41 68 116
41 69 67
41 70 117
41 71 7
41 72 236
41 73 236
41 74 219
41 75 127
41 76 223
41 77 152
41 78 213
41 79 73
41 80 180
41 81 123
41 82 18
41 83 144
41 84 63
41 85 141
41 86 116
41 87 61
41 88 12
41 89 114
41 90 159
42 43 84
42 44 225
42 45 199
42 46 222
42 47 25
42 48 145
42 49 40
42 50 174
42 51 139
42 52 182
42 53 238
42 54 56
42 55 69
42 56 263
42 57 33
42 58 18
42 59 235
42 60 224
42 61 59
42 62 14
42 63 116
42 64 106
42 65 114
42 66 269
42 67 256
42 68 240
42 69 241
42 70 159
42 71 12
42 72 226
42 73 127
42 74 37
42 75 163
42 76 204
42 77 121
42 78 267
42 79 29
42 80 22
42 81 114
42 82 166
42 83 20
42 84 176
42 85 71
42 86 221
42 87 178
42 88 117
42 89 81
42 90 224
43 44 86
43 45 84
43 46 59
43 47 215
43 48 18
43 49 90
43 50 77
43 51 121
43 52 17
43 53 104
43 54 111
43 55 178
43 56 45
43 57 196
43 58 96
43 59 77
43 60 184
43 61 195
43 62 142
43 63 139
43 64 35
43 65 117
43 66 230
43 67 34
43 68 238
43 69 155
43 70 101
43 71 164
43 72 85
43 73 82
43 74 23
43 75 191
43 76 88
43 77 244
43 78 198
43 79 251
43 80 0
43 81 156
43 82 74
43 83 259
43 84 61
43 85 92
43 86 59
43 87 215
43 88 150
43 89 18
43 90 214
44 45 256
44 46 36
44 47 200
44 48 33
44 49 125
44 50 46
44 51 160
44 52 43
44 53 225
44 54 224
44 55 137
44 56 35
44 57 251
44 58 100
44 59 73
44 60 16
44 61 92
44 62 188
44 63 126
44 64 35
44 65 22
44 66 71
44 67 192
44 68 246
44 69 107
44 70 140
44 71 101
44 72 113
44 73 116
44 74 181
44 75 90
44 76 201
44 77 60
44 78 196
44 79 268
44 80 177
44 81 238
44 82 237
44 83 31
44 84 229
44 85 71
44 86 232
44 87 36
44 88 63
44 89 133
44 90 212
45 46 73
45 47 228
45 48 88
45 49 149
45 50 40
45 51 68
45 52 174
45 53 180
45 54 42
45 55 196
45 56 0
45 57 10
45 58 148
45 59 143
45 60 249
45 61 115
45 62 150
45 63 209
45 64 5
45 65 118
45 66 93
45 67 44
45 68 157
45 69 85
45 70 226
45 71 93
45 72 56
45 73 109
45 74 52
45 75 157
45 76 130
45 77 12
45 78 82
45 79 39
45 80 81
45 81 176
45 82 167
45 83 202
45 84 227
45 85 20
45 86 143
45 87 93
45 88 27
45 89 19
45 90 165
46 47 101
46 48 21
46 49 217
46 50 32
46 51 261
46 52 0
46 53 191
46 54 208
46 55 101
46 56 63
46 57 102
46 58 121
46 59 96
46 60 184
46 61 266
46 62 216
46 63 45
46 64 203
46 65 47
46 66 131
46 67 148
46 68 52
46 69 201
46 70 250
46 71 23
46 72 82
46 73 8
46 74 222
46 75 262
46 76 257
46 77 10
46 78 258
46 79 245
46 80 9
46 81 93
46 82 54
46 83 264
46 84 28
46 85 185
46 86 254
46 87 128
46 88 89
46 89 15
46 90 78
47 48 207
47 49 39
47 50 258
47 51 61
47 52 185
47 53 95
47 54 204
47 55 237
47 56 126
47 57 77
47 58 128
47 59 250
47 60 131
47 61 215
47 62 224
47 63 184
47 64 161
47 65 216
47 66 100
47 67 170
47 68 251
47 69 74
47 70 206
47 71 10
47 72 211
47 73 262
47 74 202
47 75 97
47 76 26
47 77 17
47 78 71
47 79 18
47 80 87
47 81 239
47 82 154
47 83 210
47 84 113
47 85 178
47 86 242
47 87 152
47 88 154
47 89 235
47 90 239
48 49 94
48 50 259
48 51 21
48 52 230
48 53 71
48 54 54
48 55 168
48 56 112
48 57 140
48 58 150
48 59 199
48 60 132
48 61 120
48 62 187
48 63 132
48 64 178
48 65 35
48 66 152
48 67 136
48 68 142
48 69 102
48 70 79
48 71 151
48 72 14
48 73 77
48 74 78
48 75 20
48 76 93
48 77 160
48 78 180
48 79 93
48 80 237
48 81 44
48 82 209
48 83 197
48 84 114
48 85 99
48 86 88
48 87 235
48 88 158
48 89 191
48 90 41
49 50 186
49 51 53
49 52 130
49 53 40
49 54 7
49 55 118
49 56 128
49 57 133
49 58 140
49 59 240
49 60 254
49 61 218
49 62 6
49 63 55
49 64 266
49 65 247
49 66 70
49 67 82
49 68 223
49 69 230
49 70 99
49 71 182
49 72 81
49 73 108
49 74 71
49 75 268
49 76 198
49 77 33
49 78 117
49 79 189
49 80 29
49 81 153
49 82 220
49 83 194
49 84 208
49 85 199
49 86 15
49 87 121
49 88 36
49 89 240
49 90 158
50 51 151
50 52 152
50 53 227
50 54 12
50 55 185
50 56 127
50 57 128
50 58 177
50 59 226
50 60 266
50 61 111
50 62 263
50 63 76
50 64 265
50 65 263
50 66 239
50 67 239
50 68 170
50 69 114
50 70 9
50 71 191
50 72 268
50 73 212
50 74 154
50 75 4
50 76 168
50 77 226
50 78 132
50 79 63
50 80 218
50 81 247
50 82 84
50 83 8
50 84 161
50 85 146
50 86 165
50 87 16
50 88 31
50 89 266
50 90 193
51 52 151
51 53 55
51 54 97
51 55 95
51 56 10
51 57 21
51 58 91
51 59 95
51 60 9
51 61 209
51 62 175
51 63 149
51 64 138
51 65 124
51 66 257
51 67 47
51 68 115
51 69 79
51 70 243
51 71 180
51 72 7
51 73 157
51 74 164
51 75 234
51 76 236
51 77 27
51 78 210
51 79 168
51 80 234
51 81 126
51 82 268
51 83 78
51 84 174
51 85 261
51 86 171
51 87 201
51 88 215
51 89 243
51 90 80
52 53 164
52 54 145
52 55 169
52 56 242
52 57 66
52 58 249
52 59 73
52 60 259
52 61 205
52 62 183
52 63 202
52 64 204
52 65 180
52 66 260
52 67 189
52 68 254
52 69 124
52 70 243
52 71 0
52 72 5
52 73 156
52 74 189
52 75 210
52 76 56
52 77 235
52 78 9
52 79 258
52 80 45
52 81 130
52 82 86
52 83 149
52 84 32
52 85 226
52 86 89
52 87 235
52 88 211
52 89 46
52 90 261
53 54 248
53 55 38
53 56 68
53 57 268
53 58 11
53 59 16
53 60 101
53 61 134
53 62 269
53 63 130
53 64 258
53 65 259
53 66 54
53 67 172
53 68 213
53 69 13
53 70 17
53 71 104
53 72 167
53 73 150
53 74 202
53 75 83
53 76 226
53 77 177
53 78 135
53 79 171
53 80 50
53 81 147
53 82 207
53 83 100
53 84 241
53 85 76
53 86 148
53 87 244
53 88 187
53 89 68
53 90 121
54 55 54
54 56 257
54 57 203
54 58 208
54 59 196
54 60 222
54 61 28
54 62 130
54 63 56
54 64 185
54 65 68
54 66 240
54 67 57
54 68 173
54 69 21
54 70 53
54 71 219
54 72 8
54 73 32
54 74 5
54 75 155
54 76 27
54 77 72
54 78 45
54 79 68
54 80 34
54 81 30
54 82 127
54 83 262
54 84 103
54 85 104
54 86 87
54 87 227
54 88 44
54 89 11
54 90 138
55 56 97
55 57 162
55 58 226
55 59 92
55 60 17
55 61 74
55 62 175
55 63 149
55 64 192
55 65 228
55 66 31
55 67 232
55 68 70
55 69 237
55 70 154
55 71 36
55 72 25
55 73 150
55 74 229
55 75 99
55 76 109
55 77 79
55 78 45
55 79 161
55 80 172
55 81 174
55 82 256
55 83 226
55 84 115
55 85 78
55 86 190
55 87 186
55 88 206
55 89 214
55 90 194
56 57 38
56 58 42
56 59 136
56 60 268
56 61 67
56 62 193
56 63 233
56 64 181
56 65 195
56 66 198
56 67 165
56 68 27
56 69 134
56 70 260
56 71 92
56 72 96
56 73 48
56 74 140
56 75 100
56 76 60
56 77 33
56 78 188
56 79 35
56 80 222
56 81 96
56 82 70
56 83 6
56 84 188
56 85 205
56 86 177
56 87 219
56 88 19
56 89 2
56 90 26
57 58 92
57 59 165
57 60 103
57 61 241
57 62 30
57 63 150
57 64 89
57 65 257
57 66 126
57 67 105
57 68 248
57 69 96
57 70 263
57 71 195
57 72 254
57 73 26
57 74 179
57 75 162
57 76 226
57 77 109
57 78 87
57 79 60
57 80 263
57 81 179
57 82 26
57 83 83
57 84 2
57 85 182
57 86 210
57 87 4
57 88 39
57 89 236
57 90 87
58 59 225
58 60 47
58 61 37
58 62 167
58 63 21
58 64 94
58 65 106
58 66 104
58 67 139
58 68 99
58 69 202
58 70 46
58 71 123
58 72 152
58 73 114
58 74 120
58 75 258
58 76 153
58 77 89
58 78 184
58 79 25
58 80 264
58 81 150
58 82 15
58 83 208
58 84 263
58 85 118
58 86 234
58 87 241
58 88 108
58 89 242
58 90 41
59 60 219
59 61 47
59 62 6
59 63 265
59 64 97
59 65 113
59 66 221
59 67 61
59 68 155
59 69 234
59 70 89
59 71 235
59 72 178
59 73 226
59 74 55
59 75 149
59 76 16
59 77 40
59 78 205
59 79 105
59 80 174
59 81 95
59 82 208
59 83 225
59 84 237
59 85 10
59 86 178
59 87 253
59 88 241
59 89 207
59 90 221
60 61 98
60 62 202
60 63 111
60 64 229
60 65 41
60 66 11
60 67 223
60 68 253
60 69 64
60 70 82
60 71 206
60 72 1
60 73 249
60 74 138
60 75 107
60 76 82
60 77 265
60 78 213
60 79 74
60 80 225
60 81 95
60 82 90
60 83 125
60 84 240
60 85 166
60 86 156
60 87 141
60 88 29
60 89 99
60 90 87
61 62 119
61 63 26
61 64 137
61 65 265
61 66 55
61 67 207
61 68 67
61 69 181
61 70 95
61 71 160
61 72 43
61 73 1
61 74 180
61 75 58
61 76 130
61 77 3
61 78 189
61 79 196
61 80 193
61 81 149
61 82 114
61 83 243
61 84 193
61 85 171
61 86 24
61 87 62
61 88 215
61 89 98
61 90 264
62 63 9
62 64 238
62 65 255
62 66 11
62 67 126
62 68 205
62 69 198
62 70 93
62 71 53
62 72 206
62 73 24
62 74 140
62 75 59
62 76 208
62 77 38
62 78 179
62 79 204
62 80 77
62 81 268
62 82 268
62 83 255
62 84 19
62 85 138
62 86 71
62 87 201
62 88 25
62 89 224
62 90 5
63 64 131
63 65 129
63 66 14
63 67 204
63 68 117
63 69 225
63 70 253
63 71 167
63 72 240
63 73 61
63 74 13
63 75 210
63 76 51
63 77 90
63 78 196
63 79 148
63 80 43
63 81 256
63 82 56
63 83 170
63 84 223
63 85 156
63 86 75
63 87 27
63 88 173
63 89 259
63 90 97
64 65 97
64 66 243
64 67 69
64 68 32
64 69 115
64 70 49
64 71 117
64 72 62
64 73 143
64 74 182
64 75 148
64 76 151
64 77 199
64 78 115
64 79 234
64 80 17
64 81 130
64 82 88
64 83 80
64 84 205
64 85 269
64 86 32
64 87 242
64 88 87
64 89 114
64 90 252
65 66 256
65 67 209
65 68 106
65 69 45
65 70 222
65 71 138
65 72 104
65 73 210
65 74 246
65 75 145
65 76 184
65 77 92
65 78 227
65 79 240
65 80 110
65 81 227
65 82 213
65 83 32
65 84 109
65 85 145
65 86 248
65 87 20
65 88 108
65 89 232
65 90 216
66 67 172
66 68 95
66 69 194
66 70 263
66 71 138
66 72 67
66 73 80
66 74 2
66 75 75
66 76 232
66 77 20
66 78 132
66 79 244
66 80 197
66 81 102
66 82 218
66 83 32
66 84 229
66 85 34
66 86 147
66 87 234
66 88 114
66 89 131
66 90 43
67 68 4
67 69 3
67 70 21
67 71 205
67 72 106
67 73 86
67 74 183
67 75 172
67 76 206
67 77 77
67 78 22
67 79 126
67 80 197
67 81 225
67 82 172
67 83 185
67 84 179
67 85 264
67 86 223
67 87 153
67 88 218
67 89 171
67 90 230
68 69 116
68 70 139
68 71 55
68 72 33
68 73 157
68 74 78
68 75 92
68 76 110
68 77 179
68 78 21
68 79 50
68 80 67
68 81 92
68 82 68
68 83 95
68 84 190
68 85 142
68 86 2
68 87 144
68 88 259
68 89 104
68 90 190
69 70 188
69 71 58
69 72 212
69 73 1
69 74 257
69 75 209
69 76 52
69 77 197
69 78 167
69 79 189
69 80 134
69 81 3
69 82 116
69 83 62
69 84 140
69 85 120
69 86 17
69 87 240
69 88 124
69 89 13
69 90 49
70 71 232
70 72 194
70 73 68
70 74 141
70 75 40
70 76 8
70 77 221
70 78 170
70 79 159
70 80 204
70 81 178
70 82 145
70 83 122
70 84 98
70 85 209
70 86 53
70 87 127
70 88 204
70 89 80
70 90 56
71 72 215
71 73 113
71 74 100
71 75 252
71 76 57
71 77 195
71 78 166
71 79 189
71 80 106
71 81 60
71 82 103
71 83 153
71 84 182
71 85 80
71 86 260
71 87 203
71 88 87
71 89 57
71 90 186
72 73 234
72 74 210
72 75 75
72 76 84
72 77 243
72 78 129
72 79 262
72 80 72
72 81 60
72 82 149
72 83 159
72 84 63
72 85 262
72 86 33
72 87 214
72 88 171
72 89 193
72 90 173
73 74 220
73 75 0
73 76 35
73 77 61
73 78 18
73 79 265
73 80 112
73 81 267
73 82 13
73 83 91
73 84 198
73 85 162
73 86 195
73 87 23
73 88 179
73 89 166
73 90 177
74 75 131
74 76 34
74 77 266
74 78 1
74 79 22
74 80 119
74 81 77
74 82 61
74 83 47
74 84 262
74 85 260
74 86 131
74 87 60
74 88 267
74 89 120
74 90 70
75 76 218
75 77 19
75 78 1
75 79 125
75 80 189
75 81 165
75 82 127
75 83 214
75 84 75
75 85 246
75 86 0
75 87 45
75 88 190
75 89 156
75 90 226
76 77 142
76 78 85
76 79 254
76 80 131
76 81 153
76 82 30
76 83 246
76 84 53
76 85 255
76 86 114
76 87 115
76 88 135
76 89 204
76 90 10
77 78 78
77 79 43
77 80 59
77 81 249
77 82 155
77 83 149
77 84 89
77 85 14
77 86 186
77 87 231
77 88 225
77 89 253
77 90 239
78 79 157
78 80 1
78 81 180
78 82 59
78 83 77
78 84 96
78 85 105
78 86 216
78 87 75
78 88 177
78 89 237
78 90 166
79 80 217
79 81 223
79 82 59
79 83 148
79 84 49
79 85 161
79 86 243
79 87 77
79 88 159
79 89 133
79 90 148
80 81 216
80 82 17
80 83 199
80 84 23
80 85 46
80 86 3
80 87 109
80 88 105
80 89 110
80 90 64
81 82 111
81 83 212
81 84 134
81 85 187
81 86 9
81 87 203
81 88 36
81 89 26
81 90 168
82 83 15
82 84 63
82 85 126
82 86 151
82 87 32
82 88 57
82 89 191
82 90 195
83 84 182
83 85 8
83 86 152
83 87 206
83 88 44
83 89 77
83 90 141
84 85 148
84 86 224
84 87 253
84 88 163
84 89 110
84 90 92
85 86 267
85 87 153
85 88 134
85 89 17
85 90 54
86 87 33
86 88 27
86 89 159
86 90 161
87 88 146
87 89 192
87 90 14
88 89 53
88 90 28
89 90 205
